(set-option :produce-models true); benchmark generated from python API
(set-info :status unknown)
(declare-fun l_1_0_9 () Real)
(declare-fun l_1_0_8 () Real)
(declare-fun l_1_0_7 () Real)
(declare-fun l_1_0_6 () Real)
(declare-fun l_1_0_5 () Real)
(declare-fun l_1_0_4 () Real)
(declare-fun l_1_0_3 () Real)
(declare-fun l_1_0_2 () Real)
(declare-fun l_1_0_1 () Real)
(declare-fun _a_0_ () Real)
(declare-fun l_1_0_10 () Real)
(declare-fun _a_1_ () Real)
(declare-fun l_1_0_14 () Real)
(declare-fun l_1_0_13 () Real)
(declare-fun l_1_0_12 () Real)
(declare-fun _a_2_ () Real)
(declare-fun l_1_0_11 () Real)
(declare-fun _a_3_ () Real)
(declare-fun _a_4_ () Real)
(declare-fun _a_5_ () Real)
(declare-fun l_1_1_9 () Real)
(declare-fun l_1_1_8 () Real)
(declare-fun l_1_1_7 () Real)
(declare-fun l_1_1_6 () Real)
(declare-fun l_1_1_5 () Real)
(declare-fun l_1_1_4 () Real)
(declare-fun l_1_1_2 () Real)
(declare-fun l_1_1_15 () Real)
(declare-fun l_1_1_14 () Real)
(declare-fun l_1_1_12 () Real)
(declare-fun l_1_1_3 () Real)
(declare-fun l_1_1_13 () Real)
(declare-fun l_1_1_11 () Real)
(declare-fun l_1_1_10 () Real)
(declare-fun l_1_1_1 () Real)
(declare-fun l_1_1_18 () Real)
(declare-fun l_1_1_17 () Real)
(declare-fun l_1_1_16 () Real)
(declare-fun l_1_1_20 () Real)
(declare-fun l_1_1_19 () Real)
(declare-fun l_1_2_8 () Real)
(declare-fun l_1_2_6 () Real)
(declare-fun l_1_2_5 () Real)
(declare-fun l_1_2_3 () Real)
(declare-fun l_1_2_2 () Real)
(declare-fun l_1_2_15 () Real)
(declare-fun l_1_2_14 () Real)
(declare-fun l_1_2_13 () Real)
(declare-fun l_1_2_11 () Real)
(declare-fun l_1_2_1 () Real)
(declare-fun l_1_2_9 () Real)
(declare-fun l_1_2_7 () Real)
(declare-fun l_1_2_4 () Real)
(declare-fun l_1_2_12 () Real)
(declare-fun l_1_2_10 () Real)
(declare-fun l_1_2_17 () Real)
(declare-fun l_1_2_16 () Real)
(declare-fun l_1_2_18 () Real)
(declare-fun l_1_2_19 () Real)
(declare-fun l_1_2_20 () Real)
(assert
 (let ((?x46 (* l_1_0_9 l_1_0_9)))
 (let ((?x1562 (* 2.0 l_1_0_5)))
 (let ((?x1563 (* 2.0 l_1_0_4)))
 (let ((?x1564 (* 4.0 l_1_0_3)))
 (let ((?x49 (- (- (- (- (- _a_0_ (* 2.0 l_1_0_1)) l_1_0_2) ?x1564) ?x1563) ?x1562)))
 (= (- (- (- (- ?x49 l_1_0_6) l_1_0_7) l_1_0_8) ?x46) 0.0)))))))
(assert
 (= (- _a_1_ (* (* 2.0 l_1_0_10) l_1_0_9)) 0.0))
(assert
 (let ((?x1564 (* 4.0 l_1_0_3)))
 (let ((?x1070 (* l_1_0_14 l_1_0_14)))
 (let ((?x1068 (* l_1_0_13 l_1_0_13)))
 (let ((?x1072 (+ (- (- (- (+ _a_2_ l_1_0_1) (* l_1_0_12 l_1_0_12)) ?x1068) ?x1070) ?x1564)))
 (= (+ (+ ?x1072 l_1_0_4) l_1_0_5) 0.0))))))
(assert
 (let ((?x1337 (- (- _a_3_ (* (* 2.0 l_1_0_10) l_1_0_12)) (* (* 2.0 l_1_0_11) l_1_0_13))))
 (= ?x1337 0.0)))
(assert
 (let ((?x1564 (* 4.0 l_1_0_3)))
 (let ((?x1266 (* l_1_0_11 l_1_0_11)))
 (let ((?x1267 (+ (+ (- (- (+ _a_4_ l_1_0_1) (* l_1_0_10 l_1_0_10)) ?x1266) ?x1564) l_1_0_4)))
 (= (+ ?x1267 l_1_0_5) 0.0)))))
(assert
 (= (- _a_5_ (* (* 2.0 l_1_0_12) l_1_0_9)) 0.0))
(assert
 (= (- l_1_0_3) 0.0))
(assert
 (= (* (- 2.0) l_1_0_3) 0.0))
(assert
 (= (- l_1_0_3) 0.0))
(assert
 (>= l_1_0_1 0.0))
(assert
 (>= l_1_0_2 0.0))
(assert
 (>= l_1_0_3 0.0))
(assert
 (>= l_1_0_4 0.0))
(assert
 (>= l_1_0_5 0.0))
(assert
 (>= l_1_0_6 0.0))
(assert
 (>= l_1_0_7 0.0))
(assert
 (>= l_1_0_8 0.0))
(assert
 (>= l_1_0_9 0.0))
(assert
 (>= l_1_0_11 0.0))
(assert
 (>= l_1_0_14 0.0))
(assert
 (let ((?x1132 (* 9.0 l_1_1_8)))
 (let ((?x1129 (* 3.0 l_1_1_7)))
 (let ((?x1188 (* 3.0 l_1_1_2)))
 (let ((?x1186 (* l_1_1_15 l_1_1_15)))
 (let ((?x1183 (* 3.0 l_1_1_12)))
 (let ((?x1181 (* _a_0_ l_1_1_3)))
 (let ((?x1178 (* _a_0_ l_1_1_11)))
 (let ((?x1179 (- (+ (* (- _a_0_) l_1_1_1) (* (* 3.0 _a_0_) l_1_1_10)) ?x1178)))
 (let ((?x1185 (- (+ (- (+ ?x1179 (* (* 3.0 _a_0_) l_1_1_13)) ?x1181) ?x1183) l_1_1_14)))
 (let ((?x1130 (+ (- (- (- (+ (- ?x1185 ?x1186) ?x1188) l_1_1_4) l_1_1_5) l_1_1_6) ?x1129)))
 (= (+ (- (- ?x1130 ?x1132) (* (* l_1_1_9 _a_0_) _a_0_)) (/ 121.0 100.0)) 0.0))))))))))))
(assert
 (let ((?x37 (* _a_5_ l_1_1_3)))
 (let ((?x934 (* _a_5_ l_1_1_11)))
 (let ((?x929 (* _a_5_ l_1_1_1)))
 (let ((?x933 (+ (- (* (* (* (- 2.0) _a_0_) _a_5_) l_1_1_9) ?x929) (* (* 3.0 _a_5_) l_1_1_10))))
 (let ((?x34 (- (- (+ (- ?x933 ?x934) (* (* 3.0 _a_5_) l_1_1_13)) ?x37) (* (* 2.0 l_1_1_15) l_1_1_18))))
 (= (+ ?x34 1.0) 0.0)))))))
(assert
 (let ((?x836 (* 6.0 l_1_1_8)))
 (let ((?x505 (* l_1_1_17 l_1_1_17)))
 (let ((?x503 (* l_1_1_16 l_1_1_16)))
 (let ((?x603 (* _a_4_ l_1_1_3)))
 (let ((?x800 (- (- (- (* (- _a_4_) l_1_1_1) (* _a_4_ l_1_1_11)) ?x603) (* l_1_1_10 (- _a_0_ (* 3.0 _a_4_))))))
 (let ((?x504 (- (- (- ?x800 l_1_1_12) (* l_1_1_13 (- _a_0_ (* 3.0 _a_4_)))) ?x503)))
 (let ((?x795 (- (+ (- (- (- ?x504 ?x505) l_1_1_2) l_1_1_7) ?x836) (* l_1_1_9 (+ (* (* 2.0 _a_0_) _a_4_) (* _a_1_ _a_1_))))))
 (= (- ?x795 (/ 1.0 5.0)) 0.0)))))))))
(assert
 (let ((?x403 (* _a_1_ l_1_1_3)))
 (let ((?x304 (* _a_1_ l_1_1_11)))
 (let ((?x450 (* _a_1_ l_1_1_1)))
 (let ((?x454 (+ (- (* (* (* (- 2.0) _a_0_) _a_1_) l_1_1_9) ?x450) (* (* 3.0 _a_1_) l_1_1_10))))
 (let ((?x405 (- (- (+ (- ?x454 ?x304) (* (* 3.0 _a_1_) l_1_1_13)) ?x403) (* (* 2.0 l_1_1_15) l_1_1_16))))
 (= ?x405 0.0)))))))
(assert
 (let ((?x836 (* 6.0 l_1_1_8)))
 (let ((?x281 (* l_1_1_20 l_1_1_20)))
 (let ((?x19 (* l_1_1_19 l_1_1_19)))
 (let ((?x22 (* l_1_1_18 l_1_1_18)))
 (let ((?x285 (* _a_2_ l_1_1_3)))
 (let ((?x292 (- (- (- (* (- _a_2_) l_1_1_1) (* _a_2_ l_1_1_11)) ?x285) (* l_1_1_10 (- _a_0_ (* 3.0 _a_2_))))))
 (let ((?x283 (- (- (- ?x292 l_1_1_12) (* l_1_1_13 (- _a_0_ (* 3.0 _a_2_)))) ?x22)))
 (let ((?x145 (- (+ (- (- (- (- ?x283 ?x19) l_1_1_2) ?x281) l_1_1_7) ?x836) (* l_1_1_9 (+ (* (* 2.0 _a_0_) _a_2_) (* _a_5_ _a_5_))))))
 (= ?x145 0.0))))))))))
(assert
 (let ((?x535 (+ (* (* 2.0 _a_0_) _a_3_) (* (* 2.0 _a_1_) _a_5_))))
 (let ((?x623 (* _a_3_ l_1_1_3)))
 (let ((?x62 (* _a_3_ l_1_1_11)))
 (let ((?x63 (- (+ (* (- _a_3_) l_1_1_1) (* (* 3.0 _a_3_) l_1_1_10)) ?x62)))
 (let ((?x555 (- (- (+ ?x63 (* (* 3.0 _a_3_) l_1_1_13)) ?x623) (* (* 2.0 l_1_1_16) l_1_1_18))))
 (= (- (- ?x555 (* (* 2.0 l_1_1_17) l_1_1_19)) (* l_1_1_9 ?x535)) 0.0)))))))
(assert
 (let ((?x848 (- (- (- (* (- _a_4_) l_1_1_10) (* _a_4_ l_1_1_13)) l_1_1_8) (* (* l_1_1_9 _a_4_) _a_4_))))
 (= ?x848 0.0)))
(assert
 (let ((?x1287 (* 2.0 l_1_1_8)))
 (let ((?x92 (- (* (- l_1_1_10) (+ _a_2_ _a_4_)) (* l_1_1_13 (+ _a_2_ _a_4_)))))
 (let ((?x1323 (- (- ?x92 ?x1287) (* l_1_1_9 (+ (* (* 2.0 _a_2_) _a_4_) (* _a_3_ _a_3_))))))
 (= ?x1323 0.0)))))
(assert
 (let ((?x825 (- (- (- (* (- _a_2_) l_1_1_10) (* _a_2_ l_1_1_13)) l_1_1_8) (* (* l_1_1_9 _a_2_) _a_2_))))
 (= ?x825 0.0)))
(assert
 (let ((?x1549 (+ (* (* 2.0 _a_1_) _a_2_) (* (* 2.0 _a_3_) _a_5_))))
 (let ((?x1457 (- (- (* (- _a_1_) l_1_1_10) (* _a_1_ l_1_1_13)) (* l_1_1_9 ?x1549))))
 (= ?x1457 0.0))))
(assert
 (let ((?x1356 (+ (* (* 2.0 _a_1_) _a_3_) (* (* 2.0 _a_4_) _a_5_))))
 (let ((?x1358 (- (- (* (- _a_5_) l_1_1_10) (* _a_5_ l_1_1_13)) (* l_1_1_9 ?x1356))))
 (= ?x1358 0.0))))
(assert
 (let ((?x354 (* _a_1_ l_1_1_13)))
 (let ((?x348 (* _a_1_ l_1_1_10)))
 (= (- (- (* (* (* (- 2.0) _a_1_) _a_4_) l_1_1_9) ?x348) ?x354) 0.0))))
(assert
 (let ((?x1093 (* _a_3_ l_1_1_13)))
 (let ((?x1407 (* _a_3_ l_1_1_10)))
 (= (- (- (* (* (* (- 2.0) _a_2_) _a_3_) l_1_1_9) ?x1407) ?x1093) 0.0))))
(assert
 (let ((?x337 (* _a_5_ l_1_1_13)))
 (let ((?x910 (* _a_5_ l_1_1_10)))
 (= (- (- (* (* (* (- 2.0) _a_2_) _a_5_) l_1_1_9) ?x910) ?x337) 0.0))))
(assert
 (let ((?x1093 (* _a_3_ l_1_1_13)))
 (let ((?x1407 (* _a_3_ l_1_1_10)))
 (= (- (- (* (* (* (- 2.0) _a_3_) _a_4_) l_1_1_9) ?x1407) ?x1093) 0.0))))
(assert
 (>= l_1_1_1 0.0))
(assert
 (>= l_1_1_2 0.0))
(assert
 (>= l_1_1_3 0.0))
(assert
 (>= l_1_1_4 0.0))
(assert
 (>= l_1_1_5 0.0))
(assert
 (>= l_1_1_6 0.0))
(assert
 (>= l_1_1_7 0.0))
(assert
 (>= l_1_1_8 0.0))
(assert
 (>= l_1_1_9 0.0))
(assert
 (>= l_1_1_10 0.0))
(assert
 (>= l_1_1_11 0.0))
(assert
 (>= l_1_1_12 0.0))
(assert
 (>= l_1_1_13 0.0))
(assert
 (>= l_1_1_14 0.0))
(assert
 (>= l_1_1_15 0.0))
(assert
 (>= l_1_1_17 0.0))
(assert
 (>= l_1_1_20 0.0))
(assert
 (let ((?x785 (* 3.0 l_1_2_6)))
 (let ((?x767 (* 3.0 l_1_2_2)))
 (let ((?x766 (* l_1_2_15 l_1_2_15)))
 (let ((?x903 (* 9.0 l_1_2_13)))
 (let ((?x786 (* 3.0 l_1_2_1)))
 (let ((?x783 (* 1.0 _a_3_)))
 (let ((?x1395 (* _a_0_ l_1_2_9)))
 (let ((?x1394 (* _a_0_ l_1_2_7)))
 (let ((?x1400 (- (- (* (* (- 3.0) _a_0_) l_1_2_10) (* _a_0_ l_1_2_12)) (* (* 3.0 _a_0_) l_1_2_4))))
 (let ((?x1048 (+ (- (+ (- (- ?x1400 ?x1394) ?x1395) _a_0_) (* 1.0 _a_1_)) (* 1.0 _a_2_))))
 (let ((?x897 (- (+ (+ (- ?x1048 ?x783) (* 1.0 _a_4_)) (* 1.0 _a_5_)) ?x786)))
 (let ((?x772 (- (- (- (- ?x897 (* (* l_1_2_11 _a_0_) _a_0_)) ?x903) l_1_2_14) ?x766)))
 (= (- (- (- (- (- ?x772 ?x767) l_1_2_3) l_1_2_5) ?x785) l_1_2_8) 0.0))))))))))))))
(assert
 (let ((?x634 (* l_1_2_17 l_1_2_17)))
 (let ((?x942 (* l_1_2_16 l_1_2_16)))
 (let ((?x943 (* 6.0 l_1_2_13)))
 (let ((?x1365 (* 2.0 _a_4_)))
 (let ((?x1479 (* _a_4_ l_1_2_9)))
 (let ((?x486 (* _a_4_ l_1_2_7)))
 (let ((?x1482 (- (- (- (+ _a_1_ (* 1.0 _a_3_)) (* _a_4_ l_1_2_12)) ?x486) ?x1479)))
 (let ((?x847 (- (+ (- ?x1482 ?x1365) l_1_2_1) (* l_1_2_10 (+ (- _a_0_) (* 3.0 _a_4_))))))
 (let ((?x994 (- ?x847 (* l_1_2_11 (+ (* (* 2.0 _a_0_) _a_4_) (* _a_1_ _a_1_))))))
 (let ((?x631 (- (+ (- (- (+ ?x994 ?x943) ?x942) ?x634) l_1_2_2) (* l_1_2_4 (+ (- _a_0_) (* 3.0 _a_4_))))))
 (= (+ ?x631 l_1_2_6) 0.0))))))))))))
(assert
 (let ((?x1146 (* _a_5_ l_1_2_9)))
 (let ((?x1160 (* _a_5_ l_1_2_7)))
 (let ((?x1143 (* _a_5_ l_1_2_12)))
 (let ((?x1365 (* 2.0 _a_4_)))
 (let ((?x783 (* 1.0 _a_3_)))
 (let ((?x1414 (- (+ (+ (* (* (* (- 2.0) _a_0_) _a_5_) l_1_2_11) _a_1_) ?x783) ?x1365)))
 (let ((?x1159 (- (- (- ?x1414 (* (* 3.0 _a_5_) l_1_2_10)) ?x1143) (* (* 3.0 _a_5_) l_1_2_4))))
 (= (- (- (- ?x1159 ?x1160) ?x1146) (* (* 2.0 l_1_2_15) l_1_2_18)) 0.0)))))))))
(assert
 (let ((?x1409 (* 2.0 l_1_2_13)))
 (let ((?x558 (* 4.0 _a_2_)))
 (let ((?x905 (+ ?x558 _a_3_)))
 (let ((?x1552 (- (- ?x905 (* l_1_2_10 (- (- _a_2_) _a_4_))) (* l_1_2_11 (+ (* (* 2.0 _a_2_) _a_4_) (* _a_3_ _a_3_))))))
 (= (- (- ?x1552 ?x1409) (* l_1_2_4 (- (- _a_2_) _a_4_))) 0.0))))))
(assert
 (let ((?x1443 (* _a_3_ l_1_2_4)))
 (let ((?x1441 (* _a_3_ l_1_2_10)))
 (let ((?x1442 (+ (+ (* (* (* (- 2.0) _a_2_) _a_3_) l_1_2_11) (* 4.0 _a_2_)) ?x1441)))
 (= (+ ?x1442 ?x1443) 0.0)))))
(assert
 (let ((?x535 (+ (* (* 2.0 _a_0_) _a_3_) (* (* 2.0 _a_1_) _a_5_))))
 (let ((?x1316 (* 2.0 _a_5_)))
 (let ((?x381 (* 2.0 _a_3_)))
 (let ((?x816 (* _a_3_ l_1_2_9)))
 (let ((?x143 (* _a_3_ l_1_2_7)))
 (let ((?x1202 (* _a_3_ l_1_2_12)))
 (let ((?x141 (- (- (- (* 4.0 _a_2_) (* (* 3.0 _a_3_) l_1_2_10)) ?x1202) (* (* 3.0 _a_3_) l_1_2_4))))
 (let ((?x1113 (- (- (+ (- (- (- ?x141 ?x143) ?x816) ?x381) ?x1316) (* l_1_2_11 ?x535)) (* (* 2.0 l_1_2_16) l_1_2_18))))
 (= (- ?x1113 (* (* 2.0 l_1_2_17) l_1_2_19)) 0.0))))))))))
(assert
 (let ((?x108 (- (+ (+ (* _a_2_ l_1_2_10) (* _a_2_ l_1_2_4)) _a_2_) (* (* l_1_2_11 _a_2_) _a_2_))))
 (= (- ?x108 l_1_2_13) 0.0)))
(assert
 (let ((?x787 (* l_1_2_20 l_1_2_20)))
 (let ((?x375 (* l_1_2_19 l_1_2_19)))
 (let ((?x747 (* l_1_2_18 l_1_2_18)))
 (let ((?x943 (* 6.0 l_1_2_13)))
 (let ((?x783 (* 1.0 _a_3_)))
 (let ((?x1289 (* 2.0 _a_2_)))
 (let ((?x1489 (* _a_2_ l_1_2_9)))
 (let ((?x1490 (+ (- (- (* (- _a_2_) l_1_2_12) (* _a_2_ l_1_2_7)) ?x1489) ?x1289)))
 (let ((?x1298 (- (+ (+ (+ (- ?x1490 ?x783) _a_4_) _a_5_) l_1_2_1) (* l_1_2_10 (+ (- _a_0_) (* 3.0 _a_2_))))))
 (let ((?x745 (- ?x1298 (* l_1_2_11 (+ (* (* 2.0 _a_0_) _a_2_) (* _a_5_ _a_5_))))))
 (let ((?x878 (- (- (+ (- (- (+ ?x745 ?x943) ?x747) ?x375) l_1_2_2) ?x787) (* l_1_2_4 (+ (- _a_0_) (* 3.0 _a_2_))))))
 (= (+ ?x878 l_1_2_6) 0.0)))))))))))))
(assert
 (let ((?x381 (* 2.0 _a_3_)))
 (let ((?x1443 (* _a_3_ l_1_2_4)))
 (let ((?x1441 (* _a_3_ l_1_2_10)))
 (let ((?x954 (+ (+ (+ (* (* (* (- 2.0) _a_3_) _a_4_) l_1_2_11) ?x1441) ?x1443) ?x381)))
 (= ?x954 0.0))))))
(assert
 (let ((?x1549 (+ (* (* 2.0 _a_1_) _a_2_) (* (* 2.0 _a_3_) _a_5_))))
 (let ((?x381 (* 2.0 _a_3_)))
 (let ((?x726 (- (+ (+ (* _a_1_ l_1_2_10) (* _a_1_ l_1_2_4)) ?x381) (* l_1_2_11 ?x1549))))
 (= ?x726 0.0)))))
(assert
 (let ((?x1388 (* _a_5_ l_1_2_4)))
 (let ((?x1126 (* _a_5_ l_1_2_10)))
 (let ((?x307 (+ (+ (+ (* (* (* (- 2.0) _a_2_) _a_5_) l_1_2_11) _a_3_) ?x1126) ?x1388)))
 (= ?x307 0.0)))))
(assert
 (let ((?x250 (- (+ (+ (* _a_4_ l_1_2_10) (* _a_4_ l_1_2_4)) _a_4_) (* (* l_1_2_11 _a_4_) _a_4_))))
 (= (- ?x250 l_1_2_13) 0.0)))
(assert
 (let ((?x1356 (+ (* (* 2.0 _a_1_) _a_3_) (* (* 2.0 _a_4_) _a_5_))))
 (let ((?x1388 (* _a_5_ l_1_2_4)))
 (let ((?x79 (- (+ (+ (* 2.0 _a_4_) (* _a_5_ l_1_2_10)) ?x1388) (* l_1_2_11 ?x1356))))
 (= ?x79 0.0)))))
(assert
 (let ((?x1593 (* _a_1_ l_1_2_9)))
 (let ((?x1591 (* _a_1_ l_1_2_7)))
 (let ((?x1587 (* _a_1_ l_1_2_12)))
 (let ((?x1586 (- (* (* (* (- 2.0) _a_0_) _a_1_) l_1_2_11) (* (* 3.0 _a_1_) l_1_2_10))))
 (let ((?x1594 (- (- (- (- ?x1586 ?x1587) (* (* 3.0 _a_1_) l_1_2_4)) ?x1591) ?x1593)))
 (= (- ?x1594 (* (* 2.0 l_1_2_15) l_1_2_16)) 0.0)))))))
(assert
 (let ((?x792 (* _a_1_ l_1_2_4)))
 (let ((?x834 (* _a_1_ l_1_2_10)))
 (= (+ (+ (* (* (* (- 2.0) _a_1_) _a_4_) l_1_2_11) ?x834) ?x792) 0.0))))
(assert
 (>= l_1_2_1 0.0))
(assert
 (>= l_1_2_2 0.0))
(assert
 (>= l_1_2_3 0.0))
(assert
 (>= l_1_2_4 0.0))
(assert
 (>= l_1_2_5 0.0))
(assert
 (>= l_1_2_6 0.0))
(assert
 (>= l_1_2_7 0.0))
(assert
 (>= l_1_2_8 0.0))
(assert
 (>= l_1_2_9 0.0))
(assert
 (>= l_1_2_10 0.0))
(assert
 (>= l_1_2_11 0.0))
(assert
 (>= l_1_2_12 0.0))
(assert
 (>= l_1_2_13 0.0))
(assert
 (>= l_1_2_14 0.0))
(assert
 (>= l_1_2_15 0.0))
(assert
 (>= l_1_2_17 0.0))
(assert
 (>= l_1_2_20 0.0))
(check-sat)
(get-model)